800
149575.0 56809.5
46050.0 153229.9
32563.0 156651.4
25615.0 157936.3
13118.0 159461.3
3791.0 159955.1
2347.0 159982.8
1712.0 159990.8
1123.0 159996.1
1068.0 159996.4
1009.0 159996.8
981.0 159997.0
942.0 159997.2
930.0 159997.3
928.0 159997.3
926.0 159997.3
917.0 159997.4
912.0 159997.4
910.0 159997.4
906.0 159997.4
901.0 159997.5
893.0 159997.5
885.0 159997.6
880.0 159997.6
878.0 159997.6
873.0 159997.6
870.0 159997.6
867.0 159997.7
858.0 159997.7
856.0 159997.7
855.0 159997.7
845.0 159997.8
840.0 159997.8
831.0 159997.8
829.0 159997.9
821.0 159997.9
816.0 159997.9
812.0 159997.9
805.0 159998.0
802.0 159998.0
799.0 159998.0
797.0 159998.0
792.0 159998.0
781.0 159998.1
775.0 159998.1
771.0 159998.1
767.0 159998.2
763.0 159998.2
755.0 159998.2
750.0 159998.2
746.0 159998.3
743.0 159998.3
741.0 159998.3
730.0 159998.3
726.0 159998.4
724.0 159998.4
723.0 159998.4
716.0 159998.4
715.0 159998.4
703.0 159998.5
695.0 159998.5
692.0 159998.5
688.0 159998.5
686.0 159998.5
676.0 159998.6
671.0 159998.6
665.0 159998.6
664.0 159998.6
656.0 159998.7
652.0 159998.7
648.0 159998.7
647.0 159998.7
637.0 159998.7
634.0 159998.7
629.0 159998.8
625.0 159998.8
616.0 159998.8
610.0 159998.8
605.0 159998.9
604.0 159998.9
600.0 159998.9
594.0 159998.9
585.0 159998.9
580.0 159998.9
576.0 159999.0
575.0 159999.0
570.0 159999.0
565.0 159999.0
559.0 159999.0
551.0 159999.1
545.0 159999.1
543.0 159999.1
536.0 159999.1
532.0 159999.1
526.0 159999.1
524.0 159999.1
522.0 159999.1
510.0 159999.2
506.0 159999.2
503.0 159999.2
501.0 159999.2
500.0 159999.2
497.0 159999.2
492.0 159999.2
476.0 159999.3
473.0 159999.3
469.0 159999.3
468.0 159999.3
465.0 159999.3
463.0 159999.3
451.0 159999.4
443.0 159999.4
442.0 159999.4
438.0 159999.4
429.0 159999.4
424.0 159999.4
419.0 159999.5
415.0 159999.5
409.0 159999.5
403.0 159999.5
399.0 159999.5
395.0 159999.5
388.0 159999.5
387.0 159999.5
386.0 159999.5
379.0 159999.6
374.0 159999.6
365.0 159999.6
356.0 159999.6
355.0 159999.6
347.0 159999.6
346.0 159999.6
341.0 159999.6
339.0 159999.6
335.0 159999.6
323.0 159999.7
321.0 159999.7
319.0 159999.7
310.0 159999.7
301.0 159999.7
298.0 159999.7
295.0 159999.7
286.0 159999.7
280.0 159999.8
277.0 159999.8
273.0 159999.8
271.0 159999.8
266.0 159999.8
259.0 159999.8
250.0 159999.8
247.0 159999.8
244.0 159999.8
240.0 159999.8
231.0 159999.8
225.0 159999.8
221.0 159999.8
218.0 159999.9
217.0 159999.9
208.0 159999.9
201.0 159999.9
199.0 159999.9
194.0 159999.9
185.0 159999.9
184.0 159999.9
181.0 159999.9
180.0 159999.9
176.0 159999.9
171.0 159999.9
164.0 159999.9
151.0 159999.9
146.0 159999.9
141.0 159999.9
140.0 159999.9
139.0 159999.9
128.0 159999.9
120.0 160000.0
119.0 160000.0
112.0 160000.0
110.0 160000.0
109.0 160000.0
105.0 160000.0
91.0 160000.0
90.0 160000.0
80.0 160000.0
76.0 160000.0
72.0 160000.0
66.0 160000.0
64.0 160000.0
59.0 160000.0
57.0 160000.0
55.0 160000.0
49.0 160000.0
44.0 160000.0
32.0 160000.0
29.0 160000.0
25.0 160000.0
16.0 160000.0
10.0 160000.0
9.0 160000.0
0.0 160000.0
-0.0 160000.0
-13.0 160000.0
-20.0 160000.0
-21.0 160000.0
-27.0 160000.0
-34.0 160000.0
-35.0 160000.0
-40.0 160000.0
-43.0 160000.0
-46.0 160000.0
-50.0 160000.0
-57.0 160000.0
-62.0 160000.0
-69.0 160000.0
-72.0 160000.0
-76.0 160000.0
-84.0 160000.0
-87.0 160000.0
-94.0 160000.0
-95.0 160000.0
-102.0 160000.0
-112.0 160000.0
-116.0 160000.0
-122.0 160000.0
-125.0 160000.0
-128.0 159999.9
-131.0 159999.9
-143.0 159999.9
-145.0 159999.9
-146.0 159999.9
-152.0 159999.9
-155.0 159999.9
-162.0 159999.9
-171.0 159999.9
-178.0 159999.9
-180.0 159999.9
-182.0 159999.9
-191.0 159999.9
-193.0 159999.9
-197.0 159999.9
-208.0 159999.9
-215.0 159999.9
-217.0 159999.9
-218.0 159999.9
-220.0 159999.8
-225.0 159999.8
-234.0 159999.8
-236.0 159999.8
-241.0 159999.8
-245.0 159999.8
-254.0 159999.8
-260.0 159999.8
-265.0 159999.8
-266.0 159999.8
-271.0 159999.8
-279.0 159999.8
-282.0 159999.8
-287.0 159999.7
-291.0 159999.7
-298.0 159999.7
-302.0 159999.7
-305.0 159999.7
-312.0 159999.7
-317.0 159999.7
-323.0 159999.7
-332.0 159999.7
-334.0 159999.7
-340.0 159999.6
-345.0 159999.6
-350.0 159999.6
-355.0 159999.6
-356.0 159999.6
-364.0 159999.6
-367.0 159999.6
-374.0 159999.6
-380.0 159999.5
-387.0 159999.5
-389.0 159999.5
-394.0 159999.5
-400.0 159999.5
-409.0 159999.5
-411.0 159999.5
-414.0 159999.5
-418.0 159999.5
-420.0 159999.4
-427.0 159999.4
-432.0 159999.4
-435.0 159999.4
-440.0 159999.4
-449.0 159999.4
-452.0 159999.4
-457.0 159999.3
-461.0 159999.3
-467.0 159999.3
-472.0 159999.3
-476.0 159999.3
-487.0 159999.3
-490.0 159999.2
-492.0 159999.2
-496.0 159999.2
-502.0 159999.2
-508.0 159999.2
-511.0 159999.2
-519.0 159999.2
-520.0 159999.2
-529.0 159999.1
-534.0 159999.1
-542.0 159999.1
-545.0 159999.1
-547.0 159999.1
-550.0 159999.1
-560.0 159999.0
-561.0 159999.0
-566.0 159999.0
-574.0 159999.0
-578.0 159999.0
-584.0 159998.9
-590.0 159998.9
-593.0 159998.9
-595.0 159998.9
-602.0 159998.9
-605.0 159998.9
-615.0 159998.8
-621.0 159998.8
-622.0 159998.8
-626.0 159998.8
-635.0 159998.7
-642.0 159998.7
-645.0 159998.7
-646.0 159998.7
-654.0 159998.7
-656.0 159998.7
-666.0 159998.6
-668.0 159998.6
-671.0 159998.6
-678.0 159998.6
-683.0 159998.5
-691.0 159998.5
-700.0 159998.5
-701.0 159998.5
-704.0 159998.5
-706.0 159998.4
-718.0 159998.4
-720.0 159998.4
-723.0 159998.4
-733.0 159998.3
-736.0 159998.3
-744.0 159998.3
-745.0 159998.3
-748.0 159998.3
-753.0 159998.2
-757.0 159998.2
-763.0 159998.2
-770.0 159998.1
-773.0 159998.1
-778.0 159998.1
-792.0 159998.0
-793.0 159998.0
-794.0 159998.0
-802.0 159998.0
-806.0 159998.0
-807.0 159998.0
-810.0 159997.9
-821.0 159997.9
-822.0 159997.9
-826.0 159997.9
-835.0 159997.8
-839.0 159997.8
-843.0 159997.8
-853.0 159997.7
-854.0 159997.7
-856.0 159997.7
-865.0 159997.7
-866.0 159997.7
-872.0 159997.6
-876.0 159997.6
-887.0 159997.5
-895.0 159997.5
-897.0 159997.5
-898.0 159997.5
-901.0 159997.5
-905.0 159997.4
-915.0 159997.4
-917.0 159997.4
-929.0 159997.3
-933.0 159997.3
-959.0 159997.1
-962.0 159997.1
-964.0 159997.1
-972.0 159997.0
-975.0 159997.0
-992.0 159996.9
-1033.0 159996.7
-1067.0 159996.4
-1210.0 159995.4
-1669.0 159991.3
-8031.0 159798.3
-10403.0 159661.4
-32009.0 156765.5
-96883.0 127333.0
-4089.0 -159947.7
-3553.0 -159960.5
-2568.0 -159979.4
-2155.0 -159985.5
-2074.0 -159986.6
-1124.0 -159996.1
-1102.0 -159996.2
-982.0 -159997.0
-980.0 -159997.0
-963.0 -159997.1
-954.0 -159997.2
-941.0 -159997.2
-935.0 -159997.3
-932.0 -159997.3
-928.0 -159997.3
-927.0 -159997.3
-923.0 -159997.3
-922.0 -159997.3
-911.0 -159997.4
-900.0 -159997.5
-895.0 -159997.5
-893.0 -159997.5
-891.0 -159997.5
-888.0 -159997.5
-876.0 -159997.6
-870.0 -159997.6
-867.0 -159997.7
-863.0 -159997.7
-855.0 -159997.7
-852.0 -159997.7
-846.0 -159997.8
-844.0 -159997.8
-843.0 -159997.8
-842.0 -159997.8
-830.0 -159997.8
-824.0 -159997.9
-821.0 -159997.9
-819.0 -159997.9
-808.0 -159998.0
-805.0 -159998.0
-797.0 -159998.0
-792.0 -159998.0
-790.0 -159998.0
-785.0 -159998.1
-781.0 -159998.1
-775.0 -159998.1
-771.0 -159998.1
-761.0 -159998.2
-760.0 -159998.2
-755.0 -159998.2
-748.0 -159998.3
-743.0 -159998.3
-739.0 -159998.3
-737.0 -159998.3
-726.0 -159998.4
-725.0 -159998.4
-722.0 -159998.4
-711.0 -159998.4
-709.0 -159998.4
-705.0 -159998.4
-696.0 -159998.5
-691.0 -159998.5
-690.0 -159998.5
-682.0 -159998.5
-678.0 -159998.6
-676.0 -159998.6
-668.0 -159998.6
-663.0 -159998.6
-657.0 -159998.7
-654.0 -159998.7
-649.0 -159998.7
-640.0 -159998.7
-639.0 -159998.7
-631.0 -159998.8
-629.0 -159998.8
-624.0 -159998.8
-619.0 -159998.8
-611.0 -159998.8
-607.0 -159998.8
-606.0 -159998.9
-603.0 -159998.9
-601.0 -159998.9
-595.0 -159998.9
-584.0 -159998.9
-581.0 -159998.9
-570.0 -159999.0
-566.0 -159999.0
-563.0 -159999.0
-562.0 -159999.0
-553.0 -159999.0
-546.0 -159999.1
-541.0 -159999.1
-537.0 -159999.1
-534.0 -159999.1
-526.0 -159999.1
-520.0 -159999.2
-516.0 -159999.2
-511.0 -159999.2
-510.0 -159999.2
-500.0 -159999.2
-495.0 -159999.2
-494.0 -159999.2
-491.0 -159999.2
-485.0 -159999.3
-477.0 -159999.3
-474.0 -159999.3
-465.0 -159999.3
-462.0 -159999.3
-458.0 -159999.3
-453.0 -159999.4
-448.0 -159999.4
-446.0 -159999.4
-443.0 -159999.4
-438.0 -159999.4
-429.0 -159999.4
-426.0 -159999.4
-416.0 -159999.5
-412.0 -159999.5
-405.0 -159999.5
-402.0 -159999.5
-401.0 -159999.5
-397.0 -159999.5
-388.0 -159999.5
-386.0 -159999.5
-382.0 -159999.5
-371.0 -159999.6
-368.0 -159999.6
-364.0 -159999.6
-356.0 -159999.6
-350.0 -159999.6
-346.0 -159999.6
-341.0 -159999.6
-336.0 -159999.6
-331.0 -159999.7
-325.0 -159999.7
-321.0 -159999.7
-319.0 -159999.7
-316.0 -159999.7
-313.0 -159999.7
-305.0 -159999.7
-304.0 -159999.7
-300.0 -159999.7
-288.0 -159999.7
-284.0 -159999.7
-276.0 -159999.8
-271.0 -159999.8
-265.0 -159999.8
-262.0 -159999.8
-261.0 -159999.8
-250.0 -159999.8
-246.0 -159999.8
-241.0 -159999.8
-238.0 -159999.8
-235.0 -159999.8
-231.0 -159999.8
-225.0 -159999.8
-219.0 -159999.9
-216.0 -159999.9
-209.0 -159999.9
-200.0 -159999.9
-198.0 -159999.9
-192.0 -159999.9
-190.0 -159999.9
-185.0 -159999.9
-179.0 -159999.9
-178.0 -159999.9
-169.0 -159999.9
-168.0 -159999.9
-163.0 -159999.9
-161.0 -159999.9
-149.0 -159999.9
-148.0 -159999.9
-138.0 -159999.9
-136.0 -159999.9
-130.0 -159999.9
-127.0 -159999.9
-119.0 -160000.0
-116.0 -160000.0
-107.0 -160000.0
-106.0 -160000.0
-105.0 -160000.0
-95.0 -160000.0
-89.0 -160000.0
-81.0 -160000.0
-76.0 -160000.0
-74.0 -160000.0
-73.0 -160000.0
-70.0 -160000.0
-69.0 -160000.0
-66.0 -160000.0
-49.0 -160000.0
-42.0 -160000.0
-37.0 -160000.0
-31.0 -160000.0
-28.0 -160000.0
-21.0 -160000.0
-20.0 -160000.0
-11.0 -160000.0
-6.0 -160000.0
-3.0 -160000.0
2.0 -160000.0
7.0 -160000.0
12.0 -160000.0
18.0 -160000.0
20.0 -160000.0
40.0 -160000.0
41.0 -160000.0
42.0 -160000.0
46.0 -160000.0
50.0 -160000.0
52.0 -160000.0
57.0 -160000.0
67.0 -160000.0
69.0 -160000.0
70.0 -160000.0
79.0 -160000.0
81.0 -160000.0
85.0 -160000.0
99.0 -160000.0
104.0 -160000.0
105.0 -160000.0
106.0 -160000.0
113.0 -160000.0
117.0 -160000.0
125.0 -160000.0
126.0 -160000.0
130.0 -159999.9
135.0 -159999.9
146.0 -159999.9
148.0 -159999.9
153.0 -159999.9
162.0 -159999.9
167.0 -159999.9
175.0 -159999.9
179.0 -159999.9
181.0 -159999.9
183.0 -159999.9
191.0 -159999.9
192.0 -159999.9
195.0 -159999.9
201.0 -159999.9
205.0 -159999.9
211.0 -159999.9
215.0 -159999.9
224.0 -159999.8
233.0 -159999.8
235.0 -159999.8
238.0 -159999.8
242.0 -159999.8
247.0 -159999.8
251.0 -159999.8
266.0 -159999.8
270.0 -159999.8
275.0 -159999.8
276.0 -159999.8
279.0 -159999.8
281.0 -159999.8
289.0 -159999.7
294.0 -159999.7
297.0 -159999.7
300.0 -159999.7
306.0 -159999.7
313.0 -159999.7
326.0 -159999.7
332.0 -159999.7
335.0 -159999.6
337.0 -159999.6
344.0 -159999.6
345.0 -159999.6
352.0 -159999.6
354.0 -159999.6
355.0 -159999.6
364.0 -159999.6
365.0 -159999.6
373.0 -159999.6
382.0 -159999.5
383.0 -159999.5
385.0 -159999.5
391.0 -159999.5
396.0 -159999.5
404.0 -159999.5
407.0 -159999.5
410.0 -159999.5
418.0 -159999.5
424.0 -159999.4
429.0 -159999.4
434.0 -159999.4
438.0 -159999.4
446.0 -159999.4
447.0 -159999.4
450.0 -159999.4
455.0 -159999.4
463.0 -159999.3
468.0 -159999.3
478.0 -159999.3
479.0 -159999.3
483.0 -159999.3
485.0 -159999.3
491.0 -159999.2
499.0 -159999.2
502.0 -159999.2
509.0 -159999.2
517.0 -159999.2
521.0 -159999.2
522.0 -159999.1
535.0 -159999.1
541.0 -159999.1
550.0 -159999.1
552.0 -159999.0
553.0 -159999.0
558.0 -159999.0
560.0 -159999.0
564.0 -159999.0
565.0 -159999.0
570.0 -159999.0
578.0 -159999.0
581.0 -159998.9
585.0 -159998.9
590.0 -159998.9
597.0 -159998.9
602.0 -159998.9
609.0 -159998.8
610.0 -159998.8
616.0 -159998.8
624.0 -159998.8
628.0 -159998.8
634.0 -159998.7
635.0 -159998.7
643.0 -159998.7
647.0 -159998.7
652.0 -159998.7
657.0 -159998.7
667.0 -159998.6
670.0 -159998.6
677.0 -159998.6
678.0 -159998.6
682.0 -159998.5
688.0 -159998.5
699.0 -159998.5
701.0 -159998.5
703.0 -159998.5
713.0 -159998.4
716.0 -159998.4
721.0 -159998.4
724.0 -159998.4
726.0 -159998.4
730.0 -159998.3
737.0 -159998.3
744.0 -159998.3
749.0 -159998.2
755.0 -159998.2
758.0 -159998.2
761.0 -159998.2
766.0 -159998.2
772.0 -159998.1
779.0 -159998.1
787.0 -159998.1
790.0 -159998.0
793.0 -159998.0
799.0 -159998.0
801.0 -159998.0
808.0 -159998.0
814.0 -159997.9
815.0 -159997.9
823.0 -159997.9
830.0 -159997.8
834.0 -159997.8
840.0 -159997.8
841.0 -159997.8
853.0 -159997.7
854.0 -159997.7
858.0 -159997.7
862.0 -159997.7
865.0 -159997.7
877.0 -159997.6
886.0 -159997.5
890.0 -159997.5
891.0 -159997.5
892.0 -159997.5
895.0 -159997.5
903.0 -159997.5
906.0 -159997.4
913.0 -159997.4
918.0 -159997.4
921.0 -159997.3
925.0 -159997.3
930.0 -159997.3
957.0 -159997.1
963.0 -159997.1
967.0 -159997.1
986.0 -159997.0
1004.0 -159996.8
1180.0 -159995.6
1232.0 -159995.3
1608.0 -159991.9
6378.0 -159872.8
6417.0 -159871.3
14917.0 -159303.1
21583.0 -158537.6
49402.0 -152182.3
